0 1748
1 395
2 175
3 172
4 162
5 162
6 162
7 162
8 159
9 159
10 158
11 156
12 155
13 155
14 155
15 155
16 155
17 155
18 155
19 154
20 154
21 154
22 154
23 154
24 154
25 154
26 153
27 153
28 153
29 153
30 153
31 153
32 153
33 153
34 153
35 152
36 152
37 152
38 152
39 152
40 152
41 152
42 152
43 152
44 152
45 152
46 152
47 152
48 152
49 152
50 152
51 152
52 152
53 152
54 152
55 152
56 152
57 152
58 152
59 152
60 152
61 152
62 152
63 152
64 152
65 152
66 152
67 152
68 152
69 152
70 152
71 152
72 152
73 152
74 152
75 152
76 152
77 152
78 152
79 152
80 152
81 152
82 152
83 152
84 152
85 152
86 152
87 152
88 152
89 152
90 152
91 152
92 152
93 152
94 152
95 152
96 152
97 152
98 152
99 152
100 152
101 152
102 152
103 152
104 152
105 152
106 152
107 152
108 152
109 152
110 152
111 152
112 152
113 152
114 152
115 152
116 152
117 152
118 152
119 152
120 152
121 152
122 152
123 152
124 152
125 152
126 152
127 152
128 152
129 152
130 152
131 152
132 152
133 152
134 152
135 152
136 152
137 152
138 152
139 152
140 152
141 152
142 152
143 152
144 152
145 152
146 152
147 152
148 152
149 152
150 152
151 152
152 152
153 152
154 152
155 152
156 152
157 152
158 152
159 152
160 152
161 152
162 152
163 152
164 152
165 152
166 152
167 152
168 152
169 152
170 152
171 152
172 152
173 152
174 152
175 152
176 152
177 152
178 152
179 152
180 152
181 152
182 152
183 152
184 152
185 152
186 152
187 152
188 152
189 152
190 152
191 152
192 152
193 152
194 152
195 152
196 152
197 152
198 152
199 152
200 152
201 152
202 152
203 152
204 152
205 152
206 152
207 152
208 152
209 152
210 152
211 152
212 152
213 152
214 152
215 152
216 152
217 152
218 152
219 152
220 152
221 152
222 152
223 152
224 152
225 152
226 152
227 152
228 152
229 152
230 152
231 152
232 152
233 152
234 152
235 152
236 152
237 152
238 152
239 152
240 152
241 152
242 152
243 152
244 152
245 152
246 152
247 152
248 152
249 152
250 152
251 152
252 152
253 152
254 152
255 152
256 152
257 152
258 152
259 152
260 152
261 152
262 152
263 152
264 152
265 152
266 152
267 152
268 152
269 152
270 152
271 152
272 152
273 152
274 152
275 152
276 152
277 152
278 152
279 152
280 152
281 152
282 152
283 152
284 152
285 152
286 152
287 152
288 152
289 152
290 152
291 152
292 152
293 152
294 152
295 152
296 152
297 152
298 152
299 152
300 152
301 152
302 152
303 152
304 152
305 152
306 152
307 152
308 152
309 152
310 152
311 152
312 152
313 152
314 152
315 152
316 152
317 152
318 152
319 152
320 152
321 152
322 152
323 152
324 152
325 152
326 152
327 152
328 152
329 152
330 152
331 152
332 152
333 152
334 152
335 151
336 151
337 151
338 151
339 151
340 151
341 151
342 151
343 151
344 151
345 151
346 151
347 151
348 151
349 151
350 151
351 151
352 151
353 151
354 151
355 151
356 151
357 151
358 151
359 151
360 151
361 151
362 151
363 151
364 151
365 151
366 151
367 151
368 151
369 151
370 151
371 151
372 151
373 151
374 151
375 151
376 151
377 151
378 151
379 151
380 151
381 151
382 151
383 151
384 151
385 151
386 151
387 151
388 151
389 151
390 151
391 151
392 151
393 151
394 151
395 151
396 151
397 151
398 151
399 151
400 151
401 151
402 151
403 151
404 151
405 151
406 151
407 151
408 151
409 151
410 151
411 149
412 149
413 149
414 149
415 149
416 149
417 149
418 149
419 149
420 149
421 149
422 149
423 149
424 149
425 149
426 149
427 149
428 149
429 149
430 149
431 149
432 149
433 149
434 149
435 149
436 149
437 149
438 149
439 149
440 149
441 149
442 149
443 149
444 149
445 149
446 149
447 149
448 149
449 149
450 149
451 149
452 149
453 149
454 149
455 149
456 149
457 149
458 149
459 149
460 149
461 149
462 149
463 149
464 149
465 149
466 149
467 149
468 149
469 149
470 149
471 149
472 149
473 149
474 149
475 149
476 149
477 149
478 149
479 149
480 149
481 149
482 149
483 149
484 149
485 149
486 149
487 149
488 149
489 149
490 149
491 149
492 149
493 149
494 149
495 149
496 149
497 149
498 149
499 149
500 149
501 149
502 149
503 149
504 149
505 149
506 149
507 149
508 149
509 149
510 149
511 149
512 149
513 149
514 149
515 149
516 149
517 149
518 149
519 149
520 149
521 149
522 149
523 149
524 149
525 149
526 149
527 149
528 149
529 149
530 149
531 149
532 149
533 149
534 149
535 149
536 149
537 149
538 149
539 149
540 149
541 149
542 149
543 149
544 149
545 149
546 149
547 149
548 149
549 149
550 149
551 149
552 149
553 149
554 149
555 149
556 149
557 149
558 149
559 149
560 149
561 149
562 149
563 149
564 149
565 149
566 149
567 149
568 149
569 149
570 149
571 149
572 149
573 149
574 149
575 149
576 149
577 149
578 149
579 149
580 149
581 149
582 149
583 149
584 149
585 149
586 149
587 149
588 149
589 149
590 149
591 149
592 149
593 149
594 149
595 149
596 149
597 149
598 149
599 149
600 149
601 149
602 149
603 149
604 149
605 149
606 149
607 149
608 149
609 149
610 149
611 149
612 149
613 149
614 149
615 149
616 149
617 149
618 149
619 149
620 149
621 149
622 149
623 149
624 149
625 149
626 149
627 149
628 149
629 149
630 149
631 149
632 149
633 149
634 149
635 149
636 149
637 149
638 149
639 147
640 147
641 147
642 147
643 147
644 147
645 147
646 147
647 147
648 147
649 147
650 147
651 147
652 147
653 147
654 147
655 147
656 147
657 147
658 147
659 147
660 147
661 147
662 147
663 147
664 147
665 147
666 147
667 147
668 147
669 147
670 147
671 147
672 147
673 147
674 147
675 147
676 147
677 147
678 147
679 147
680 147
681 147
682 147
683 147
684 147
685 147
686 147
687 147
688 147
689 147
690 147
691 147
692 147
693 147
694 147
695 147
696 147
697 147
698 147
699 147
700 147
701 147
702 147
703 147
704 147
705 147
706 147
707 147
708 147
709 147
710 147
711 147
712 147
713 147
714 147
715 147
716 147
717 147
718 147
719 147
720 147
721 147
722 147
723 147
724 147
725 147
726 147
727 147
728 147
729 147
730 147
731 147
732 147
733 147
734 147
735 147
736 147
737 147
738 147
739 147
740 147
741 147
742 147
743 147
744 147
745 147
746 147
747 147
748 147
749 147
750 147
751 147
752 147
753 147
754 147
755 147
756 147
757 147
758 147
759 147
760 147
761 147
762 147
763 147
764 147
765 147
766 147
767 147
768 147
769 147
770 147
771 147
772 147
773 147
774 147
775 147
776 147
777 147
778 147
779 147
780 147
781 147
782 147
783 147
784 147
785 147
786 147
787 147
788 147
789 147
790 147
791 147
792 147
793 147
794 147
795 147
796 147
797 147
798 147
799 147
800 147
801 147
802 147
803 147
804 147
805 147
806 147
807 147
808 147
809 147
810 147
811 147
812 147
813 147
814 147
815 147
816 147
817 147
818 147
819 147
820 147
821 147
822 147
823 147
824 147
825 147
826 147
827 147
828 147
829 147
830 147
831 147
832 147
833 147
834 147
835 147
836 147
837 147
838 147
839 147
840 147
841 147
842 147
843 147
844 147
845 147
846 147
847 147
848 147
849 147
850 147
851 147
852 147
853 147
854 147
855 147
856 147
857 147
858 147
859 147
860 147
861 147
862 147
863 147
864 147
865 147
866 147
867 147
868 147
869 147
870 147
871 147
872 147
873 147
874 147
875 147
876 147
877 147
878 147
879 147
880 147
881 147
882 147
883 147
884 147
885 147
886 147
887 147
888 147
889 147
890 147
891 147
892 147
893 147
894 147
895 147
896 147
897 147
898 147
899 147
900 147
901 147
902 147
903 147
904 147
905 147
906 147
907 147
908 147
909 147
910 147
911 147
912 147
913 147
914 147
915 147
916 147
917 147
918 147
919 147
920 147
921 147
922 147
923 147
924 147
925 147
926 147
927 147
928 147
929 147
930 147
931 147
932 147
933 147
934 147
935 147
936 147
937 147
938 147
939 147
940 147
941 147
942 147
943 147
944 147
945 147
946 147
947 147
948 147
949 147
950 147
951 147
952 147
953 147
954 147
955 147
956 147
957 147
958 147
959 147
960 147
961 147
962 147
963 147
964 147
965 147
966 147
967 147
968 147
969 147
970 147
971 147
972 147
973 147
974 147
975 147
976 147
977 147
978 147
979 147
980 147
981 147
982 147
983 147
984 147
985 147
986 147
987 147
988 147
989 147
990 147
991 147
992 147
993 147
994 147
995 147
996 147
997 147
998 147
999 147
